
Log started (V12.10.0.0) Sun Apr  4 08:58:02 2021


Problem 'asset.lp' read.
Read time = 0.00 sec. (0.18 ticks)
New value for default parallel thread count: 1
New value for time limit in seconds: 300
Version identifier: 12.10.0.0 | 2019-11-26 | 843d4de
CPXPARAM_Threads                                 1
CPXPARAM_TimeLimit                               300
Found incumbent of value -0.910992 after 0.00 sec. (0.09 ticks)
Tried aggregator 5 times.
MIP Presolve eliminated 550 rows and 358 columns.
MIP Presolve modified 1692 coefficients.
Aggregator did 523 substitutions.
Reduced MIP has 673 rows, 697 columns, and 2963 nonzeros.
Reduced MIP has 600 binaries, 59 generals, 0 SOSs, and 0 indicators.
Presolve time = 0.01 sec. (8.88 ticks)
Probing fixed 157 vars, tightened 16 bounds.
Probing time = 0.00 sec. (2.42 ticks)
Cover probing fixed 0 vars, tightened 102 bounds.
Tried aggregator 2 times.
MIP Presolve eliminated 213 rows and 204 columns.
MIP Presolve modified 164 coefficients.
Aggregator did 1 substitutions.
Reduced MIP has 459 rows, 485 columns, and 1780 nonzeros.
Reduced MIP has 411 binaries, 36 generals, 0 SOSs, and 0 indicators.
Presolve time = 0.00 sec. (3.20 ticks)
Probing time = 0.00 sec. (1.39 ticks)
Tried aggregator 1 time.
Detecting symmetries...
MIP Presolve modified 6 coefficients.
Reduced MIP has 459 rows, 485 columns, and 1780 nonzeros.
Reduced MIP has 411 binaries, 36 generals, 0 SOSs, and 0 indicators.
Presolve time = 0.00 sec. (1.26 ticks)
Probing time = 0.00 sec. (1.39 ticks)
Clique table members: 1433.
MIP emphasis: balance optimality and feasibility.
MIP search method: dynamic search.
Parallel mode: none, using 1 thread.
Root relaxation solution time = 0.00 sec. (3.71 ticks)

        Nodes                                         Cuts/
   Node  Left     Objective  IInf  Best Integer    Best Bound    ItCnt     Gap

*     0+    0                           -0.9110      353.4447              --- 
      0     0      208.8477    81       -0.9110      208.8477      329     --- 
      0     0      205.6242    81       -0.9110     Cuts: 137      436     --- 
      0     0      202.0256    81       -0.9110      Cuts: 88      628     --- 
      0     0      201.5922    81       -0.9110      Cuts: 90      691     --- 
      0     0      200.8491    81       -0.9110      Cuts: 46      739     --- 
      0     0      200.5925    81       -0.9110      Cuts: 33      794     --- 
*     0+    0                          179.0540      200.5925            12.03%
Detecting symmetries...
      0     0      200.4444    81      179.0540      Cuts: 53      829   11.95%
      0     0      200.1858    81      179.0540      Cuts: 36      863   11.80%
*     0+    0                          191.4231      200.1858             4.58%
      0     0      199.8770    81      191.4231      Cuts: 54      899    4.42%
      0     0      199.6852    81      191.4231      Cuts: 21      932    4.32%
      0     0      199.3837    81      191.4231      Cuts: 64      990    4.16%
      0     0      199.3762    81      191.4231      Cuts: 18     1020    4.15%
      0     0      199.2787    81      191.4231       Cuts: 9     1047    4.10%
      0     0      199.2365    81      191.4231      Cuts: 30     1090    4.08%
      0     0      199.2284    81      191.4231      Cuts: 34     1120    4.08%
*     0+    0                          191.4240      199.2284             4.08%
*     0+    0                          191.4241      199.2284             4.08%
Detecting symmetries...
      0     2      199.2284   126      191.4241      199.2137     1120    4.07%
Elapsed time = 0.14 sec. (128.52 ticks, tree = 0.01 MB, solutions = 4)
*   100+   69                          191.4254      198.3985             3.64%
*   170+  122                          191.4258      195.3206             2.03%
*   180+  132                          191.4260      195.3206             2.03%
*   280+  208                          191.4263      195.3202             2.03%
    410   315      194.6475    69      191.4263      195.3160     7724    2.03%
    720   510      192.2779    47      191.4263      194.5218    14277    1.62%
*   863   521      integral     0      191.4267      194.1512    19240    1.42%
    955   587        cutoff            191.4267      194.1500    20910    1.42%
*   963+  564                          191.4269      194.1499             1.42%
   1284   705      191.4270    26      191.4269      193.9779    26721    1.33%
   1600   813      192.2765    32      191.4269      192.8406    32702    0.74%
*  2000+  881                          191.4269      192.2806             0.45%
   2066   929      192.2770    37      191.4269      192.2804    38578    0.45%

Performing restart 1

Repeating presolve.
Tried aggregator 3 times.
MIP Presolve eliminated 63 rows and 90 columns.
MIP Presolve modified 158 coefficients.
Aggregator did 16 substitutions.
Reduced MIP has 380 rows, 379 columns, and 1340 nonzeros.
Reduced MIP has 329 binaries, 18 generals, 0 SOSs, and 0 indicators.
Presolve time = 0.00 sec. (2.00 ticks)
Tried aggregator 1 time.
MIP Presolve eliminated 22 rows and 21 columns.
MIP Presolve modified 4 coefficients.
Reduced MIP has 358 rows, 358 columns, and 1258 nonzeros.
Reduced MIP has 309 binaries, 18 generals, 0 SOSs, and 0 indicators.
Presolve time = 0.00 sec. (0.78 ticks)
Tried aggregator 1 time.
Reduced MIP has 358 rows, 358 columns, and 1258 nonzeros.
Reduced MIP has 309 binaries, 18 generals, 0 SOSs, and 0 indicators.
Presolve time = 0.00 sec. (0.91 ticks)
Represolve time = 0.01 sec. (10.77 ticks)
   2110     0      194.9494    68      191.4269      Cuts: 51    39623    0.45%
   2110     0      194.4626    68      191.4269      Cuts: 66    39833    0.45%
   2110     0      192.8808    68      191.4269      Cuts: 49    39925    0.45%
   2110     0      192.0426    68      191.4269      Cuts: 28    39990    0.32%
*  2110+    0                          191.4271      192.0426             0.32%
   2110     0        cutoff            191.4271      192.0426    39990    0.32%

Repeating presolve.
Tried aggregator 2 times.
MIP Presolve eliminated 187 rows and 142 columns.
MIP Presolve modified 240 coefficients.
Aggregator did 4 substitutions.
Reduced MIP has 167 rows, 212 columns, and 807 nonzeros.
Reduced MIP has 178 binaries, 13 generals, 0 SOSs, and 0 indicators.
Presolve time = 0.00 sec. (1.24 ticks)
Tried aggregator 2 times.
MIP Presolve eliminated 10 rows and 4 columns.
MIP Presolve modified 19 coefficients.
Aggregator did 1 substitutions.
Reduced MIP has 156 rows, 207 columns, and 745 nonzeros.
Reduced MIP has 173 binaries, 13 generals, 0 SOSs, and 0 indicators.
Presolve time = 0.00 sec. (1.16 ticks)
Tried aggregator 1 time.
Reduced MIP has 156 rows, 207 columns, and 745 nonzeros.
Reduced MIP has 173 binaries, 13 generals, 0 SOSs, and 0 indicators.
Presolve time = 0.00 sec. (0.51 ticks)
Represolve time = 0.01 sec. (10.22 ticks)
   2110     0      191.6034    75      191.4271      Cuts: 51    40343    0.09%
   2110     0      191.4285    75      191.4271       Cuts: 8    40426    0.00%

GUB cover cuts applied:  1
Clique cuts applied:  4
Cover cuts applied:  1
Implied bound cuts applied:  3
Mixed integer rounding cuts applied:  17
Zero-half cuts applied:  6
Lift and project cuts applied:  5
Gomory fractional cuts applied:  9

Root node processing (before b&c):
  Real time             =    0.14 sec. (128.66 ticks)
Sequential b&c:
  Real time             =    1.54 sec. (1629.81 ticks)
                          ------------
Total (root+branch&cut) =    1.68 sec. (1758.47 ticks)

Solution pool: 13 solutions saved.

MIP - Integer optimal, tolerance (0.0001/1e-06):  Objective =  1.9142707949e+02
Current MIP best bound =  1.9142851134e+02 (gap = 0.00143185, 0.00%)
Solution time =    1.68 sec.  Iterations = 40426  Nodes = 2110 (1)
Deterministic time = 1758.48 ticks  (1048.30 ticks/sec)


Incumbent solution
Variable Name           Solution Value
F                           215.000000
f1                            0.932921
f2                           22.640000
y155                          1.000000
y206                          1.000000
y244                          1.000000
y190                          1.000000
y97                           1.000000
y135                          1.000000
y70                           1.000000
y222                          1.000000
y239                          1.000000
y166                          1.000000
y224                          1.000000
y154                          1.000000
y215                          1.000000
y134                          1.000000
s17                           6.000000
s39                           6.000000
s43                           6.000000
s62                           6.000000
s76                           6.000000
s85                           6.000000
s94                           6.000000
s98                           6.000000
s99                           6.000000
s100                          6.000000
s106                          6.000000
s118                          6.000000
s136                          6.000000
s137                          6.000000
s138                          6.000000
s155                          6.434285
s156                          6.000000
s157                          6.000000
s171                          6.000000
s172                          6.000000
s174                          6.000000
s175                          6.000000
s179                          6.000000
s206                          6.131019
s207                          6.000000
s210                          6.000000
s221                          6.000000
s244                          6.099374
s245                          6.000000
s250                          6.000000
s260                          6.000000
s266                          6.000000
s268                          6.000000
s104                          6.010000
s37                           6.030000
s132                          6.060000
s190                          6.822804
s15                           6.140000
s97                           6.651852
s135                          6.960202
s257                          6.180000
s225                          6.240000
s70                           6.836519
s1                            6.270000
s191                          6.270000
s36                           6.280000
s222                          7.259652
s239                          6.766528
s166                          7.032157
s224                          6.832516
s189                          6.480000
s40                           6.580000
s154                          7.602235
s215                          7.479141
s134                          7.694339
x247x239x1                    1.000000
x265x215x1                    1.000000
x109x155x1                    2.000000
x42x135x1                     1.000000
x42x224x1                     1.000000
x164x97x1                     1.000000
x203x70x1                     1.000000
x35x244x2                     1.000000
x82x224x2                     1.000000
x267x134x2                    1.000000
x55x206x2                     2.000000
x16x190x2                     1.000000
x203x190x2                    1.000000
x119x166x3                    2.000000
x247x239x3                    1.000000
x265x215x3                    1.000000
x82x135x3                     1.000000
x267x134x3                    1.000000
x66x244x3                     1.000000
x164x97x3                     1.000000
x16x70x3                      1.000000
x155x0x1                      2.000000
x206x154x2                    2.000000
x244x222x2                    1.000000
x244x222x3                    1.000000
x190x0x2                      2.000000
x97x0x1                       1.000000
x97x0x3                       1.000000
x135x0x1                      1.000000
x135x0x3                      1.000000
x70x0x1                       1.000000
x70x0x3                       1.000000
x222x0x2                      1.000000
x222x0x3                      1.000000
x239x0x1                      1.000000
x239x0x3                      1.000000
x166x0x3                      2.000000
x224x0x1                      1.000000
x224x0x2                      1.000000
x154x0x2                      2.000000
x215x0x1                      1.000000
x215x0x3                      1.000000
x134x0x2                      1.000000
x134x0x3                      1.000000
s35                           4.761924
z35z244z2                     1.000000
z35z40z2                      1.000000
z35z154z2                     1.000000
s119                          5.112809
z119z166z3                    1.000000
s247                          5.068248
z247z239z1                    1.000000
z247z239z3                    1.000000
s265                          5.417802
z265z215z1                    1.000000
z265z215z3                    1.000000
s82                           5.123212
z82z135z3                     1.000000
z82z224z2                     1.000000
s109                          5.050715
z109z155z1                    1.000000
s42                           5.316493
z42z135z1                     1.000000
z42z224z1                     1.000000
s267                          5.993426
z267z134z2                    1.000000
z267z134z3                    1.000000
s66                           4.209840
z66z244z3                     1.000000
z66z104z3                     1.000000
z66z225z3                     1.000000
z66z166z3                     1.000000
z66z189z3                     1.000000
s55                           4.781090
z55z206z2                     1.000000
z55z40z2                      1.000000
z55z154z2                     1.000000
s164                          4.850690
z164z97z1                     1.000000
z164z97z3                     1.000000
s16                           4.897890
z16z190z2                     1.000000
z16z70z3                      1.000000
s203                          4.844690
z203z190z2                    1.000000
z203z70z1                     1.000000
z206z154z2                    1.000000
z244z222z2                    1.000000
z244z222z3                    1.000000
All other variables in the range 1-1581 are 0.
